
Gurobi 13.0.1 (linux64) logging started Sun Mar 22 13:19:34 2026

Set parameter LogFile to value "logs/50B_3F_robust_gamma_1_theta_0d05199999999999999_2026-03-22_13h19m18s.log"
Set parameter MIPGap to value 0.005
Set parameter OptimalityTol to value 0.005
Gurobi Optimizer version 13.0.1 build v13.0.1rc0 (linux64 - "openSUSE Tumbleweed")

CPU model: Intel(R) Core(TM) i7-10610U CPU @ 1.80GHz, instruction set [SSE2|AVX|AVX2]
Thread count: 4 physical cores, 8 logical processors, using up to 8 threads

Non-default parameters:
TimeLimit  3600
SoftMemLimit  12
MIPGap  0.005
OptimalityTol  0.005

Optimize a model with 30471 rows, 390571 columns and 1204034 nonzeros (Max)
Model fingerprint: 0x51e5c874
Model has 367561 linear objective coefficients
Variable types: 8071 continuous, 382500 integer (382500 binary)
Coefficient statistics:
  Matrix range     [3e-05, 1e+05]
  Objective range  [1e+00, 3e+03]
  Bounds range     [1e+00, 1e+05]
  RHS range        [8e-03, 1e+05]

Presolve removed 15658 rows and 282196 columns
Presolve time: 1.38s
Presolved: 14813 rows, 108375 columns, 345908 nonzeros
Variable types: 3921 continuous, 104454 integer (104454 binary)
Found heuristic solution: objective -3.92155e+08
Deterministic concurrent LP optimizer: primal and dual simplex
Showing primal log only...


Root simplex log...

Iteration    Objective       Primal Inf.    Dual Inf.      Time
   37023    5.5991782e+07   0.000000e+00   1.967194e+07      5s
Concurrent spin time: 1.11s (can be avoided by choosing Method=3)

Solved with dual simplex

Root simplex log...

Iteration    Objective       Primal Inf.    Dual Inf.      Time
   10682    5.6023603e+07   0.000000e+00   0.000000e+00      6s

Root relaxation: objective 5.602360e+07, 10682 iterations, 4.01 seconds (2.69 work units)

    Nodes    |    Current Node    |     Objective Bounds      |     Work
 Expl Unexpl |  Obj  Depth IntInf | Incumbent    BestBd   Gap | It/Node Time

     0     0 5.6024e+07    0 2549 -3.922e+08 5.6024e+07   114%     -    6s
H    0     0                    -2.42179e+08 5.6024e+07   123%     -    8s
H    0     0                    -1.71770e+08 5.6024e+07   133%     -    8s
H    0     0                    -1.71454e+08 5.6024e+07   133%     -    9s
H    0     0                    -1.63740e+08 5.6024e+07   134%     -   10s
H    0     0                    -1.54892e+08 5.6024e+07   136%     -   11s
H    0     0                    -1.10908e+08 5.6024e+07   151%     -   13s
H    0     0                    -1.08830e+08 5.6024e+07   151%     -   13s
H    0     0                    -1.08825e+08 5.6024e+07   151%     -   16s
H    0     0                    -1.08825e+08 5.6024e+07   151%     -   16s
H    0     0                    -1.01955e+08 5.6024e+07   155%     -   17s
H    0     0                    -7.74367e+07 5.6024e+07   172%     -   18s
H    0     0                    -7.36217e+07 5.6024e+07   176%     -   19s
H    0     0                    -3.14856e+07 5.6024e+07   278%     -   19s
H    0     0                    -1978283.887 5.6024e+07  2932%     -   21s
H    0     0                    -1977428.167 5.6024e+07  2933%     -   22s
H    0     0                    3.777674e+07 5.6024e+07  48.3%     -   22s
H    0     0                    4.788595e+07 5.6024e+07  17.0%     -   23s
H    0     0                    5.598142e+07 5.6020e+07  0.07%     -  198s
H    0     0                    5.598143e+07 5.6020e+07  0.07%     -  198s
H    0     0                    5.598450e+07 5.6020e+07  0.06%     -  198s
H    0     0                    5.598526e+07 5.6020e+07  0.06%     -  198s
H    0     0                    5.598625e+07 5.6020e+07  0.06%     -  200s
H    0     0                    5.598701e+07 5.6020e+07  0.06%     -  200s
H    0     0                    5.598732e+07 5.6020e+07  0.06%     -  200s
H    0     0                    5.599080e+07 5.6020e+07  0.05%     -  200s
H    0     0                    5.599231e+07 5.6020e+07  0.05%     -  200s
     0     0 5.6020e+07    0 2954 5.5992e+07 5.6020e+07  0.05%     -  200s

Cutting planes:
  Gomory: 5
  Flow cover: 2
  Zero half: 33
  RLT: 900

Explored 1 nodes (120202 simplex iterations) in 200.90 seconds (112.14 work units)
Thread count was 8 (of 8 available processors)

Solution count 10: 5.59923e+07 5.59908e+07 5.59873e+07 ... 4.7886e+07

Optimal solution found (tolerance 5.00e-03)
Best objective 5.599231000144e+07, best bound 5.601995856514e+07, gap 0.0494%
